(set-logic QF_S)
(declare-fun var_0xINPUT_38062 () String)
(assert (and (= (len var_0xINPUT_38062) 0) (= (len var_0xINPUT_38062) 0) (not (= var_0xINPUT_38062 "Example:")) (not (= var_0xINPUT_38062 "qXdHDo7IZR"))))
(check-sat var_0xINPUT_38062)